CMPL model generation - running

CMPL version: 1.11.0
Authors: Thomas Schleiff, Mike Steglich
Distributed under the GPLv3 

create model instance ...
write model instance ...
CMPL model generation - finished

Solver - running


Welcome to IBM(R) ILOG(R) CPLEX(R) Interactive Optimizer 12.7.1.0
  with Simplex, Mixed Integer & Barrier Optimizers
5725-A06 5725-A29 5724-Y48 5724-Y49 5724-Y54 5724-Y55 5655-Y21
Copyright IBM Corp. 1988, 2017.  All Rights Reserved.

Type 'help' for a list of available commands.
Type 'help' followed by a command name for more
information on commands.

CPLEX> Specified objective sense: MINIMIZE
Selected objective  name:  line[1]
Selected RHS        name:  RHS
Selected bound      name:  BOUND
Problem '/tmp/cmpl.T24163.mps' read.
Read time = 0.05 sec. (8.17 ticks)
CPLEX> CPXPARAM_Read_APIEncoding                        "UTF-8"
Tried aggregator 3 times.
MIP Presolve eliminated 19209 rows and 30647 columns.
MIP Presolve modified 340 coefficients.
Aggregator did 641 substitutions.
Reduced MIP has 2505 rows, 3305 columns, and 9637 nonzeros.
Reduced MIP has 3137 binaries, 0 generals, 0 SOSs, and 0 indicators.
Presolve time = 0.05 sec. (40.48 ticks)
Found incumbent of value 737.700474 after 0.10 sec. (67.56 ticks)
Probing fixed 3 vars, tightened 0 bounds.
Probing time = 0.01 sec. (4.32 ticks)
Tried aggregator 1 time.
MIP Presolve eliminated 0 rows and 3 columns.
MIP Presolve modified 14 coefficients.
Reduced MIP has 2505 rows, 3302 columns, and 9631 nonzeros.
Reduced MIP has 3302 binaries, 0 generals, 0 SOSs, and 0 indicators.
Presolve time = 0.01 sec. (8.09 ticks)
Probing time = 0.01 sec. (2.68 ticks)
Clique table members: 5887.
MIP emphasis: balance optimality and feasibility.
MIP search method: dynamic search.
Parallel mode: none, using 1 thread.
Root relaxation solution time = 0.01 sec. (4.80 ticks)

        Nodes                                         Cuts/
   Node  Left     Objective  IInf  Best Integer    Best Bound    ItCnt     Gap

*     0+    0                          737.7005      -34.2859           104.65%
      0     0      188.3310     9      737.7005      188.3310      151   74.47%
*     0+    0                          200.4178      188.3310             6.03%
*     0+    0                          188.5882      188.3310             0.14%
      0     0      188.5336     1      188.5882      Cuts: 10      162    0.03%
*     0+    0                          188.5414      188.5336             0.00%
      0     0        cutoff            188.5414      188.5336      162    0.00%
Elapsed time = 0.16 sec. (108.87 ticks, tree = 0.01 MB, solutions = 4)

GUB cover cuts applied:  1
Clique cuts applied:  1
Cover cuts applied:  5
Gomory fractional cuts applied:  3

Root node processing (before b&c):
  Real time             =    0.16 sec. (110.59 ticks)
Sequential b&c:
  Real time             =    0.00 sec. (0.00 ticks)
                          ------------
Total (root+branch&cut) =    0.16 sec. (110.59 ticks)

Solution pool: 4 solutions saved.

MIP - Integer optimal solution:  Objective =  1.8854139900e+02
Solution time =    0.16 sec.  Iterations = 162  Nodes = 0
Deterministic time = 110.69 ticks  (679.33 ticks/sec)

CPLEX> Incumbent solution written to file '/tmp/cmpl.T24163.gsol'.
CPLEX> 
CMPL: Time used for model generation: 1 seconds
CMPL: Time used for solving the model: 1 seconds


Solution written to ASCII file: results/output_generated_conf_0.5/2016-09-05-4/fair-nonlinear.sol

Solver - finished
